/*********************************************
 * OPL 12.6.0.0 Data
 * Author: AbYosh
 * Creation Date: 4 Nov 2014 at 15:10:13
 *********************************************/

 num_data_structures = 10;
 //num_data_structures = 5;
 num_memory_banks = 4;
 p = 16;
 d = 16;
 
 s = [60, 40, 45, 35, 40, 50, 45, 55, 50, 40];
 //s = [60, 40, 35, 25, 30];
 c = [128, 128, 128, 128];
 e = [4, 4, 4, 4, 4, 4, 4, 4, 4, 4];
 //e = [4, 4, 4, 4, 4];